unknown
(model
; cardinality of BoundSet is 4
(declare-sort BoundSet 0)
; rep: @uc_BoundSet_0
; rep: @uc_BoundSet_1
; rep: @uc_BoundSet_2
; rep: @uc_BoundSet_3
; cardinality of UnboundSet is 1
(declare-sort UnboundSet 0)
(declare-fun groundTerm_5 () UnboundSet)
(define-fun Sings ((BOUND_VARIABLE_445 BoundSet) (BOUND_VARIABLE_446 BoundSet)) Bool true)
(define-fun From ((BOUND_VARIABLE_445 BoundSet) (BOUND_VARIABLE_446 BoundSet)) Bool true)
(define-fun At ((BOUND_VARIABLE_445 BoundSet) (BOUND_VARIABLE_446 BoundSet)) Bool true)
(define-fun IsFilledWith ((BOUND_VARIABLE_445 BoundSet) (BOUND_VARIABLE_446 BoundSet)) Bool false)
)
unsat
(error "Cannot get model unless immediately preceded by SAT/NOT_ENTAILED or UNKNOWN response.")
